solution status: gap limit reached
objective value:                          39902.17413
y#4                                                 1 	(obj:5700)
y#6                                                 1 	(obj:5700)
y#9                                                 1 	(obj:5700)
y#18                                                1 	(obj:5700)
y#20                                                1 	(obj:5700)
y#25                                                1 	(obj:5700)
y#26                                                1 	(obj:5700)
x#1#9                                               1 	(obj:0.00782)
x#2#20                                              1 	(obj:0.05185)
x#3#25                                              1 	(obj:0.02635)
x#4#4                                               1 	(obj:0.05916)
x#5#6                                               1 	(obj:0.02516)
x#6#26                                              1 	(obj:0.00646)
x#7#25                                              1 	(obj:0.03383)
x#8#20                                              1 	(obj:0.07446)
x#9#25                                              1 	(obj:0.01598)
x#10#6                                              1 	(obj:0.02074)
x#11#25                                             1 	(obj:0.00816)
x#12#20                                             1 	(obj:0.06392)
x#13#25                                             1 	(obj:0.03315)
x#14#25                                             1 	(obj:0.02992)
x#15#18                                             1 	(obj:0.00833)
x#16#6                                              1 	(obj:0.03009)
x#17#6                                              1 	(obj:0.02499)
x#18#4                                              1 	(obj:0.03417)
x#19#18                                             1 	(obj:0.01632)
x#20#18                                             1 	(obj:0.02244)
x#21#18                                             1 	(obj:0.07531)
x#22#26                                             1 	(obj:0.0238)
x#23#4                                              1 	(obj:0.0187)
x#24#9                                              1 	(obj:0.03825)
x#25#6                                              1 	(obj:0.01802)
x#26#20                                             1 	(obj:0.0357)
x#27#4                                              1 	(obj:0.07803)
x#28#25                                             1 	(obj:0.00731)
x#29#25                                             1 	(obj:0.02856)
x#30#4                                              1 	(obj:0.03451)
x#31#6                                              1 	(obj:0.01632)
x#32#26                                             1 	(obj:0.01445)
x#33#26                                             1 	(obj:0.0272)
x#34#18                                             1 	(obj:0.02414)
x#35#26                                             1 	(obj:0.02295)
x#36#9                                              1 	(obj:0.02295)
x#37#26                                             1 	(obj:0.02193)
x#38#9                                              1 	(obj:0.03043)
x#39#9                                              1 	(obj:0.03145)
x#40#26                                             1 	(obj:0.01921)
x#41#25                                             1 	(obj:0.03128)
x#42#9                                              1 	(obj:0.04386)
x#43#9                                              1 	(obj:0.02601)
x#44#9                                              1 	(obj:0.04386)
x#45#26                                             1 	(obj:0.01717)
x#46#6                                              1 	(obj:0.00374)
x#47#18                                             1 	(obj:0.05253)
x#48#20                                             1 	(obj:0.02771)
x#49#20                                             1 	(obj:0.02499)
x#50#9                                              1 	(obj:0.03876)
x#51#4                                              1 	(obj:0.03026)
x#52#4                                              1 	(obj:0.00646)
x#53#9                                              1 	(obj:0.01411)
x#54#6                                              1 	(obj:0.01887)
x#55#9                                              1 	(obj:0.03774)
x#56#20                                             1 	(obj:0.02227)
x#57#20                                             1 	(obj:0.02448)
x#58#26                                             1 	(obj:0.02193)
x#59#20                                             1 	(obj:0.02686)
x#60#4                                              1 	(obj:0.03162)
x#61#6                                              1 	(obj:0.02244)
x#62#6                                              1 	(obj:0.06188)
x#63#4                                              1 	(obj:0.02312)
x#64#20                                             1 	(obj:0.00833)
x#65#18                                             1 	(obj:0.02856)
x#66#4                                              1 	(obj:0.01139)
x#67#9                                              1 	(obj:0.03281)
x#68#26                                             1 	(obj:0.03672)
x#69#18                                             1 	(obj:0.02244)
x#70#18                                             1 	(obj:0.00612)
x#71#26                             0.999999999999998 	(obj:0.01377)
x#72#4                                              1 	(obj:0.02431)
x#73#20                                             1 	(obj:0.01751)
x#74#25                                             1 	(obj:0.02091)
x#75#18                                             1 	(obj:0.00527)
x#76#18                                             1 	(obj:0.01394)
x#77#18                                             1 	(obj:0.03417)
x#78#6                                              1 	(obj:0.04573)
x#79#25                                             1 	(obj:0.01598)
x#80#4                                              1 	(obj:0.0017)
